c 1 a1
c 2 a10
c 3 a100
c 4 a11
c 5 a12
c 6 a13
c 7 a14
c 8 a15
c 9 a16
c 10 a17
c 11 a18
c 12 a19
c 13 a2
c 14 a20
c 15 a21
c 16 a22
c 17 a23
c 18 a24
c 19 a25
c 20 a26
c 21 a27
c 22 a28
c 23 a29
c 24 a3
c 25 a30
c 26 a31
c 27 a32
c 28 a33
c 29 a34
c 30 a35
c 31 a36
c 32 a37
c 33 a38
c 34 a39
c 35 a4
c 36 a40
c 37 a41
c 38 a42
c 39 a43
c 40 a44
c 41 a45
c 42 a46
c 43 a47
c 44 a48
c 45 a49
c 46 a5
c 47 a50
c 48 a51
c 49 a52
c 50 a53
c 51 a54
c 52 a55
c 53 a56
c 54 a57
c 55 a58
c 56 a59
c 57 a6
c 58 a60
c 59 a61
c 60 a62
c 61 a63
c 62 a64
c 63 a65
c 64 a66
c 65 a67
c 66 a68
c 67 a69
c 68 a7
c 69 a70
c 70 a71
c 71 a72
c 72 a73
c 73 a74
c 74 a75
c 75 a76
c 76 a77
c 77 a78
c 78 a79
c 79 a8
c 80 a80
c 81 a81
c 82 a82
c 83 a83
c 84 a84
c 85 a85
c 86 a86
c 87 a87
c 88 a88
c 89 a89
c 90 a9
c 91 a90
c 92 a91
c 93 a92
c 94 a93
c 95 a94
c 96 a95
c 97 a96
c 98 a97
c 99 a98
c 100 a99
c 101 __spec__0
c 102 __spec__1
c 103 __spec__2
c 104 __spec__3
c 105 __spec__4
c 106 __spec__5
c 107 __spec__6
c 108 __spec__7
c 109 __spec__8
c 110 __spec__9
c 111 __spec__10
c 112 __spec__11
c 113 __spec__12
c 114 __spec__13
c 115 __spec__14
c 116 __spec__15
c 117 __spec__16
c 118 __spec__17
c 119 __spec__18
c 120 __spec__19
c 121 __spec__20
c 122 __spec__21
c 123 __spec__22
c 124 __spec__23
c 125 __spec__24
c 126 __spec__25
c 127 __spec__26
c 128 __spec__27
c 129 __spec__28
c 130 __spec__29
c 131 __spec__30
c 132 __spec__31
c 133 __spec__32
c 134 __spec__33
c 135 __spec__34
c 136 __spec__35
c 137 __spec__36
c 138 __spec__37
c 139 __spec__38
c 140 __spec__39
c 141 __spec__40
c 142 __spec__41
c 143 __spec__42
c 144 __spec__43
c 145 __spec__44
c 146 __spec__45
c 147 __spec__46
c 148 __spec__47
c 149 __spec__48
c 150 __spec__49
c 151 __spec__50
c 152 __spec__51
c 153 __spec__52
c 154 __spec__53
c 155 __spec__54
c 156 __spec__55
c 157 __spec__56
c 158 __spec__57
c 159 __spec__58
c 160 __spec__59
c 161 __spec__60
c 162 __spec__61
c 163 __spec__62
c 164 __spec__63
c 165 __spec__64
c 166 __spec__65
c 167 __spec__66
c 168 __spec__67
c 169 __spec__68
c 170 __spec__69
c 171 __spec__70
c 172 __spec__71
c 173 __spec__72
c 174 __spec__73
c 175 __spec__74
c 176 __spec__75
c 177 __spec__76
c 178 __spec__77
c 179 __spec__78
c 180 __spec__79
c 181 __spec__80
c 182 __spec__81
c 183 __spec__82
c 184 __spec__83
c 185 __spec__84
c 186 __spec__85
c 187 __spec__86
c 188 __spec__87
c 189 __spec__88
c 190 __spec__89
c 191 __spec__90
c 192 __spec__91
c 193 __spec__92
c 194 __spec__93
c 195 __spec__94
c 196 __spec__95
c 197 __spec__96
c 198 __spec__97
c MAIN 199 __spec__98
p cnf 199 297
100 -101
3 -101
-100 -3 101
99 -102
101 -102
-99 -101 102
98 -103
102 -103
-98 -102 103
97 -104
103 -104
-97 -103 104
96 -105
104 -105
-96 -104 105
95 -106
105 -106
-95 -105 106
94 -107
106 -107
-94 -106 107
93 -108
107 -108
-93 -107 108
92 -109
108 -109
-92 -108 109
91 -110
109 -110
-91 -109 110
89 -111
110 -111
-89 -110 111
88 -112
111 -112
-88 -111 112
87 -113
112 -113
-87 -112 113
86 -114
113 -114
-86 -113 114
85 -115
114 -115
-85 -114 115
84 -116
115 -116
-84 -115 116
83 -117
116 -117
-83 -116 117
82 -118
117 -118
-82 -117 118
81 -119
118 -119
-81 -118 119
80 -120
119 -120
-80 -119 120
78 -121
120 -121
-78 -120 121
77 -122
121 -122
-77 -121 122
76 -123
122 -123
-76 -122 123
75 -124
123 -124
-75 -123 124
74 -125
124 -125
-74 -124 125
73 -126
125 -126
-73 -125 126
72 -127
126 -127
-72 -126 127
71 -128
127 -128
-71 -127 128
70 -129
128 -129
-70 -128 129
69 -130
129 -130
-69 -129 130
67 -131
130 -131
-67 -130 131
66 -132
131 -132
-66 -131 132
65 -133
132 -133
-65 -132 133
64 -134
133 -134
-64 -133 134
63 -135
134 -135
-63 -134 135
62 -136
135 -136
-62 -135 136
61 -137
136 -137
-61 -136 137
60 -138
137 -138
-60 -137 138
59 -139
138 -139
-59 -138 139
58 -140
139 -140
-58 -139 140
56 -141
140 -141
-56 -140 141
55 -142
141 -142
-55 -141 142
54 -143
142 -143
-54 -142 143
53 -144
143 -144
-53 -143 144
52 -145
144 -145
-52 -144 145
51 -146
145 -146
-51 -145 146
50 -147
146 -147
-50 -146 147
49 -148
147 -148
-49 -147 148
48 -149
148 -149
-48 -148 149
47 -150
149 -150
-47 -149 150
45 -151
150 -151
-45 -150 151
44 -152
151 -152
-44 -151 152
43 -153
152 -153
-43 -152 153
42 -154
153 -154
-42 -153 154
41 -155
154 -155
-41 -154 155
40 -156
155 -156
-40 -155 156
39 -157
156 -157
-39 -156 157
38 -158
157 -158
-38 -157 158
37 -159
158 -159
-37 -158 159
36 -160
159 -160
-36 -159 160
34 -161
160 -161
-34 -160 161
33 -162
161 -162
-33 -161 162
32 -163
162 -163
-32 -162 163
31 -164
163 -164
-31 -163 164
30 -165
164 -165
-30 -164 165
29 -166
165 -166
-29 -165 166
28 -167
166 -167
-28 -166 167
27 -168
167 -168
-27 -167 168
26 -169
168 -169
-26 -168 169
25 -170
169 -170
-25 -169 170
23 -171
170 -171
-23 -170 171
22 -172
171 -172
-22 -171 172
21 -173
172 -173
-21 -172 173
20 -174
173 -174
-20 -173 174
19 -175
174 -175
-19 -174 175
18 -176
175 -176
-18 -175 176
17 -177
176 -177
-17 -176 177
16 -178
177 -178
-16 -177 178
15 -179
178 -179
-15 -178 179
14 -180
179 -180
-14 -179 180
12 -181
180 -181
-12 -180 181
11 -182
181 -182
-11 -181 182
10 -183
182 -183
-10 -182 183
9 -184
183 -184
-9 -183 184
8 -185
184 -185
-8 -184 185
7 -186
185 -186
-7 -185 186
6 -187
186 -187
-6 -186 187
5 -188
187 -188
-5 -187 188
4 -189
188 -189
-4 -188 189
2 -190
189 -190
-2 -189 190
90 -191
190 -191
-90 -190 191
79 -192
191 -192
-79 -191 192
68 -193
192 -193
-68 -192 193
57 -194
193 -194
-57 -193 194
46 -195
194 -195
-46 -194 195
35 -196
195 -196
-35 -195 196
24 -197
196 -197
-24 -196 197
13 -198
197 -198
-13 -197 198
-199 1 198
-1 199
-198 199
